variable        rseed equal   28

#  ----    Settings  ----
variable        T   equal   1.0
units           lj
atom_style      full
boundary        p   p   p
special_bonds   lj 0.0 1.0 1.0

read_data       data.homopolymer
neighbor        0.4 bin
neigh_modify    every 1 delay 1
atom_modify     sort 0 0.0

#   ----    Force Field     ----
bond_style      fene/expand
bond_coeff      1 30.0 1.5 1.0 1.0 1.4
angle_style     harmonic
angle_coeff     1 1.5 2.0 
dihedral_style  fourier
dihedral_coeff  1 1 10.0 1 -70.0 
pair_style      hybrid/overlay mie/cut 2.6 
pair_coeff      * * mie/cut 1.0 1.0 16.0 8.0 2.6
pair_modify     tabinner 0.0000000001 shift yes

thermo          1
thermo_style    custom time temp pe etotal epair ebond eangle press vol
thermo_modify   norm no flush yes

#   ----    spherical confinement     ----
#region          nucleus sphere 0.0 0.0 0.0 19.6889370749 side in
#fix             wall all wall/region nucleus lj126 1.0 1.0 1.12 

fix             1 all nve

minimize        1.0e-4 1.0e-6 100 1000
velocity        all create ${T} ${rseed} rot yes mom yes dist gaussian
reset_timestep  0
fix             bias all colvars input.colvars output output
fix_modify      bias energy yes


#    ----    Normal temperature simulation     ----
dump            2 all dcd 50 DUMP_FILE.dcd 
dump_modify     2 unwrap yes

timestep        0.0001

fix             3 all langevin ${T} ${T} 10.0 ${rseed}
run             100

